c turning on binary mode checking
c parsing input formula with 259840 variables and 1039934 clauses
c finished parsing, read 23108854 bytes from proof file
c detected empty clause; start verification via backward checking
c 15070 of 1039934 clauses in core                            
c 18318 of 601187 lemmas in core using 96656 resolution steps
c 0 RAT lemmas in core; 872 redundant literals in core lemmas
s VERIFIED
c verification time: 3.375 seconds
